32	0

0	5	2	3	4	5	7
8	3	9	10	14
7	3	9	10	14
1	1	6
5	1	6
1	1	8
6	1	8
1	3	9	10	14
8	4	13	15	16	17
6	2	11	12
3	3	15	16	17
1	4	13	15	16	17
10	3	19	20	21
10	3	15	16	17
7	3	18	19	20
8	3	19	20	21
2	3	18	19	20
3	2	21	22
3	1	22
10	2	23	24
5	2	23	24
1	2	23	24
3	2	28	29
1	1	25
1	2	26	27
1	2	28	29
1	2	28	29
7	1	31
3	1	30
1	1	31
6	1	32
0	0
